21623
56,97,75,19,4,65,26,66,70,22,94,16,88,53,79,18,24,38,99,36,84,10,72,21,74,59,17,15,11,32,45,91,98,23,77,60,62,35,86,27,20,57,9,7,12,55,83,34,29,46,43,3,14,71,41,100,48,30,39,96,78,52,5,37,33,76,13,95,82,2,54,40,64,69,44,50,73,68,85,81,25,87,51,61,58,67,28,93,47,1,63,90,49,6,92,8,42,89,31,80,56
